; DUP1 POP SWAP3 SWAP2 POP => SWAP3 SWAP2 ISZERO POP
(set-option :produce-proofs true)
; 
(set-info :status unknown)
(declare-fun storage_t ((_ BitVec 256) (_ BitVec 256) (_ BitVec 256) (_ BitVec 256) Int (_ BitVec 256)) (_ BitVec 256))
(declare-fun storage_s ((_ BitVec 256) (_ BitVec 256) (_ BitVec 256) (_ BitVec 256) Int (_ BitVec 256)) (_ BitVec 256))
(declare-fun exc_halt_t (Int) Bool)
(declare-fun exc_halt_s (Int) Bool)
(declare-fun stack_t ((_ BitVec 256) (_ BitVec 256) (_ BitVec 256) (_ BitVec 256) Int (_ BitVec 6)) (_ BitVec 256))
(declare-fun stack_s ((_ BitVec 256) (_ BitVec 256) (_ BitVec 256) (_ BitVec 256) Int (_ BitVec 6)) (_ BitVec 256))
(declare-fun sc_t (Int) (_ BitVec 6))
(declare-fun sc_s (Int) (_ BitVec 6))
(declare-fun used_gas_t ((_ BitVec 256) (_ BitVec 256) (_ BitVec 256) (_ BitVec 256) Int) Int)
(declare-fun used_gas_s ((_ BitVec 256) (_ BitVec 256) (_ BitVec 256) (_ BitVec 256) Int) Int)
(assert
 (exists ((x_0 (_ BitVec 256)) (x_1 (_ BitVec 256)) (x_2 (_ BitVec 256)) (x_3 (_ BitVec 256)) )(let (($x8897 (forall ((w (_ BitVec 256)) )(let ((?x8905 (storage_t x_0 x_1 x_2 x_3 4 w)))
 (let ((?x9063 (storage_s x_0 x_1 x_2 x_3 5 w)))
 (= ?x9063 ?x8905))))
 ))
 (let (($x7958 (exc_halt_t 4)))
 (let (($x3979 (exc_halt_s 5)))
 (let (($x5968 (= $x3979 $x7958)))
 (let (($x8076 (forall ((n (_ BitVec 6)) )(let ((?x2287 (stack_t x_0 x_1 x_2 x_3 4 n)))
 (let ((?x8677 (stack_s x_0 x_1 x_2 x_3 5 n)))
 (let (($x8904 (= ?x8677 ?x2287)))
 (or (bvsle (sc_t 4) n) $x8904)))))
 ))
 (let ((?x5915 (sc_t 4)))
 (let ((?x805 (sc_s 5)))
 (let (($x6189 (= ?x805 ?x5915)))
 (let ((?x6467 (used_gas_t x_0 x_1 x_2 x_3 0)))
 (let ((?x3024 (used_gas_s x_0 x_1 x_2 x_3 0)))
 (let (($x2422 (= ?x3024 ?x6467)))
 (let (($x9147 (forall ((w (_ BitVec 256)) )(let ((?x3055 (storage_t x_0 x_1 x_2 x_3 0 w)))
 (let ((?x2148 (storage_s x_0 x_1 x_2 x_3 0 w)))
 (= ?x2148 ?x3055))))
 ))
 (let (($x56 (exc_halt_t 0)))
 (let (($x57 (exc_halt_s 0)))
 (let (($x58 (= $x57 $x56)))
 (let (($x8708 (forall ((n (_ BitVec 6)) )(let ((?x494 (stack_t x_0 x_1 x_2 x_3 0 n)))
 (let ((?x2133 (stack_s x_0 x_1 x_2 x_3 0 n)))
 (let (($x8917 (= ?x2133 ?x494)))
 (let ((?x63 (sc_t 0)))
 (let (($x5330 (bvsle ?x63 n)))
 (or $x5330 $x8917)))))))
 ))
 (let ((?x63 (sc_t 0)))
 (let ((?x72 (sc_s 0)))
 (let (($x73 (= ?x72 ?x63)))
 (let (($x2128 (= $x7958 (or (exc_halt_t 3) (not (bvsle (_ bv0 6) (bvadd (_ bv63 6) (sc_t 3))))))))
 (let (($x8995 (forall ((w (_ BitVec 256)) )(let ((?x8793 (storage_t x_0 x_1 x_2 x_3 3 w)))
 (let ((?x8905 (storage_t x_0 x_1 x_2 x_3 4 w)))
 (= ?x8905 ?x8793))))
 ))
 (let (($x8126 (forall ((n (_ BitVec 6)) )(let ((?x2099 (stack_t x_0 x_1 x_2 x_3 3 n)))
 (let ((?x2287 (stack_t x_0 x_1 x_2 x_3 4 n)))
 (or (bvsle (bvadd (_ bv63 6) (sc_t 3)) n) (= ?x2287 ?x2099)))))
 ))
 (let (($x8105 (= (used_gas_t x_0 x_1 x_2 x_3 4) (+ 2 (used_gas_t x_0 x_1 x_2 x_3 3)))))
 (let (($x10336 (exc_halt_t 3)))
 (let (($x8789 (= $x10336 (or (exc_halt_t 2) (not (bvsle (_ bv0 6) (bvadd (_ bv63 6) (sc_t 2))))))))
 (let (($x1015 (forall ((w (_ BitVec 256)) )(let ((?x8851 (storage_t x_0 x_1 x_2 x_3 2 w)))
 (let ((?x8793 (storage_t x_0 x_1 x_2 x_3 3 w)))
 (= ?x8793 ?x8851))))
 ))
 (let (($x8108 (forall ((n (_ BitVec 6)) )(let ((?x8725 (stack_t x_0 x_1 x_2 x_3 2 n)))
 (let ((?x2099 (stack_t x_0 x_1 x_2 x_3 3 n)))
 (or (bvsle (bvadd (_ bv63 6) (sc_t 2)) n) (= ?x2099 ?x8725)))))
 ))
 (let ((?x8519 (used_gas_t x_0 x_1 x_2 x_3 3)))
 (let ((?x4056 (sc_t 2)))
 (let ((?x7277 (bvadd (_ bv63 6) ?x4056)))
 (let ((?x9037 (stack_t x_0 x_1 x_2 x_3 2 ?x7277)))
 (let (($x8447 (= (stack_t x_0 x_1 x_2 x_3 3 (bvadd (_ bv63 6) (sc_t 3))) (ite (= ?x9037 (_ bv0 256)) (_ bv1 256) (_ bv0 256)))))
 (let (($x903 (exc_halt_t 2)))
 (let (($x5895 (= $x903 (or (exc_halt_t 1) (not (bvsle (_ bv0 6) (bvadd (_ bv61 6) (sc_t 1))))))))
 (let (($x8363 (forall ((w (_ BitVec 256)) )(let ((?x7744 (storage_t x_0 x_1 x_2 x_3 1 w)))
 (let ((?x8851 (storage_t x_0 x_1 x_2 x_3 2 w)))
 (= ?x8851 ?x7744))))
 ))
 (let (($x8316 (forall ((n (_ BitVec 6)) )(let ((?x8745 (stack_t x_0 x_1 x_2 x_3 1 n)))
 (let ((?x8725 (stack_t x_0 x_1 x_2 x_3 2 n)))
 (let ((?x4023 (sc_t 1)))
 (let ((?x10397 (bvadd (_ bv61 6) ?x4023)))
 (let (($x1361 (bvsle ?x10397 n)))
 (or $x1361 (= ?x8725 ?x8745))))))))
 ))
 (let ((?x4023 (sc_t 1)))
 (let (($x5262 (= ?x4056 ?x4023)))
 (let ((?x3503 (used_gas_t x_0 x_1 x_2 x_3 2)))
 (let ((?x651 (bvadd (_ bv62 6) ?x4023)))
 (let ((?x9098 (stack_t x_0 x_1 x_2 x_3 1 ?x651)))
 (let ((?x5476 (bvadd (_ bv63 6) ?x4023)))
 (let ((?x8704 (stack_t x_0 x_1 x_2 x_3 1 ?x5476)))
 (let (($x8331 (forall ((w (_ BitVec 256)) )(let ((?x3055 (storage_t x_0 x_1 x_2 x_3 0 w)))
 (let ((?x7744 (storage_t x_0 x_1 x_2 x_3 1 w)))
 (= ?x7744 ?x3055))))
 ))
 (let (($x7918 (forall ((n (_ BitVec 6)) )(let ((?x494 (stack_t x_0 x_1 x_2 x_3 0 n)))
 (let ((?x8745 (stack_t x_0 x_1 x_2 x_3 1 n)))
 (or (= ?x8745 ?x494) (bvsle (bvadd (_ bv60 6) (sc_t 0)) n)))))
 ))
 (let ((?x10397 (bvadd (_ bv61 6) ?x4023)))
 (let ((?x9092 (stack_t x_0 x_1 x_2 x_3 1 ?x10397)))
 (let (($x9106 (= (stack_t x_0 x_1 x_2 x_3 1 (bvadd (_ bv60 6) ?x4023)) (stack_t x_0 x_1 x_2 x_3 0 (bvadd (_ bv63 6) ?x63)))))
 (let (($x5501 (= $x3979 (or (exc_halt_s 4) (not (bvsle (_ bv0 6) (bvadd (_ bv63 6) (sc_s 4))))))))
 (let (($x8340 (forall ((w (_ BitVec 256)) )(let ((?x8849 (storage_s x_0 x_1 x_2 x_3 4 w)))
 (let ((?x9063 (storage_s x_0 x_1 x_2 x_3 5 w)))
 (= ?x9063 ?x8849))))
 ))
 (let (($x8355 (forall ((n (_ BitVec 6)) )(let ((?x8993 (stack_s x_0 x_1 x_2 x_3 4 n)))
 (let ((?x8677 (stack_s x_0 x_1 x_2 x_3 5 n)))
 (let ((?x4305 (sc_s 4)))
 (let ((?x1295 (bvadd (_ bv63 6) ?x4305)))
 (let (($x7595 (bvsle ?x1295 n)))
 (or $x7595 (= ?x8677 ?x8993))))))))
 ))
 (let (($x8358 (= (used_gas_s x_0 x_1 x_2 x_3 5) (+ 2 (used_gas_s x_0 x_1 x_2 x_3 4)))))
 (let (($x64 (exc_halt_s 4)))
 (let (($x8362 (= $x64 (or (exc_halt_s 3) (not (bvsle (_ bv0 6) (bvadd (_ bv61 6) (sc_s 3))))))))
 (let (($x8369 (forall ((w (_ BitVec 256)) )(let ((?x7752 (storage_s x_0 x_1 x_2 x_3 3 w)))
 (let ((?x8849 (storage_s x_0 x_1 x_2 x_3 4 w)))
 (= ?x8849 ?x7752))))
 ))
 (let (($x8371 (forall ((n (_ BitVec 6)) )(let ((?x5824 (stack_s x_0 x_1 x_2 x_3 3 n)))
 (let ((?x8993 (stack_s x_0 x_1 x_2 x_3 4 n)))
 (or (bvsle (bvadd (_ bv61 6) (sc_s 3)) n) (= ?x8993 ?x5824)))))
 ))
 (let ((?x8858 (used_gas_s x_0 x_1 x_2 x_3 4)))
 (let ((?x275 (sc_s 3)))
 (let ((?x5404 (bvadd (_ bv62 6) ?x275)))
 (let ((?x4964 (stack_s x_0 x_1 x_2 x_3 3 ?x5404)))
 (let (($x8378 (= (stack_s x_0 x_1 x_2 x_3 4 (bvadd (_ bv62 6) (sc_s 4))) ?x4964)))
 (let ((?x7220 (bvadd (_ bv63 6) ?x275)))
 (let ((?x7988 (stack_s x_0 x_1 x_2 x_3 3 ?x7220)))
 (let (($x7889 (= (stack_s x_0 x_1 x_2 x_3 4 (bvadd (_ bv61 6) (sc_s 4))) ?x7988)))
 (let ((?x7656 (bvadd (_ bv61 6) ?x275)))
 (let ((?x8604 (stack_s x_0 x_1 x_2 x_3 3 ?x7656)))
 (let (($x2959 (= (stack_s x_0 x_1 x_2 x_3 4 (bvadd (_ bv63 6) (sc_s 4))) ?x8604)))
 (let (($x292 (exc_halt_s 3)))
 (let (($x8154 (= $x292 (or (exc_halt_s 2) (not (bvsle (_ bv0 6) (bvadd (_ bv60 6) (sc_s 2))))))))
 (let (($x8919 (forall ((w (_ BitVec 256)) )(let ((?x9293 (storage_s x_0 x_1 x_2 x_3 2 w)))
 (let ((?x7752 (storage_s x_0 x_1 x_2 x_3 3 w)))
 (= ?x7752 ?x9293))))
 ))
 (let (($x9121 (forall ((n (_ BitVec 6)) )(let ((?x8841 (stack_s x_0 x_1 x_2 x_3 2 n)))
 (let ((?x5824 (stack_s x_0 x_1 x_2 x_3 3 n)))
 (let ((?x218 (sc_s 2)))
 (let ((?x7588 (bvadd (_ bv60 6) ?x218)))
 (let (($x5272 (bvsle ?x7588 n)))
 (or $x5272 (= ?x5824 ?x8841))))))))
 ))
 (let ((?x218 (sc_s 2)))
 (let (($x5222 (= ?x275 ?x218)))
 (let ((?x5801 (used_gas_s x_0 x_1 x_2 x_3 3)))
 (let (($x3744 (= (stack_s x_0 x_1 x_2 x_3 3 (bvadd (_ bv60 6) ?x275)) (stack_s x_0 x_1 x_2 x_3 2 (bvadd (_ bv63 6) ?x218)))))
 (let (($x247 (exc_halt_s 2)))
 (let (($x9164 (= $x247 (or (exc_halt_s 1) (not (bvsle (_ bv0 6) (bvadd (_ bv63 6) (sc_s 1))))))))
 (let (($x9191 (forall ((w (_ BitVec 256)) )(let ((?x3104 (storage_s x_0 x_1 x_2 x_3 1 w)))
 (let ((?x9293 (storage_s x_0 x_1 x_2 x_3 2 w)))
 (= ?x9293 ?x3104))))
 ))
 (let (($x8687 (forall ((n (_ BitVec 6)) )(let ((?x8050 (stack_s x_0 x_1 x_2 x_3 1 n)))
 (let ((?x8841 (stack_s x_0 x_1 x_2 x_3 2 n)))
 (or (bvsle (bvadd (_ bv63 6) (sc_s 1)) n) (= ?x8841 ?x8050)))))
 ))
 (let ((?x8041 (used_gas_s x_0 x_1 x_2 x_3 2)))
 (let (($x7209 (not (= ((_ extract 6 6) (bvadd (_ bv1 7) (concat (_ bv0 1) ?x72))) (_ bv0 1)))))
 (let (($x189 (exc_halt_s 1)))
 (let (($x9210 (forall ((w (_ BitVec 256)) )(let ((?x2148 (storage_s x_0 x_1 x_2 x_3 0 w)))
 (let ((?x3104 (storage_s x_0 x_1 x_2 x_3 1 w)))
 (= ?x3104 ?x2148))))
 ))
 (let (($x9192 (forall ((n (_ BitVec 6)) )(let ((?x2133 (stack_s x_0 x_1 x_2 x_3 0 n)))
 (let ((?x8050 (stack_s x_0 x_1 x_2 x_3 1 n)))
 (or (= ?x8050 ?x2133) (bvsle (bvadd (_ bv63 6) (sc_s 0)) n)))))
 ))
 (let ((?x154 (sc_s 1)))
 (let (($x7356 (= ?x154 (bvadd (_ bv1 6) ?x72))))
 (let ((?x2668 (bvadd (_ bv63 6) ?x72)))
 (let ((?x9252 (stack_s x_0 x_1 x_2 x_3 0 ?x2668)))
 (let (($x7445 (forall ((w (_ BitVec 256)) )(let ((?x2148 (storage_s x_0 x_1 x_2 x_3 0 w)))
 (= ?x2148 (_ bv0 256))))
 ))
 (let (($x8944 (= ?x3024 0)))
 (let (($x10338 (not $x57)))
 (let (($x6479 (= (stack_s x_0 x_1 x_2 x_3 0 (_ bv3 6)) x_3)))
 (let (($x8886 (= (stack_s x_0 x_1 x_2 x_3 0 (_ bv2 6)) x_2)))
 (let (($x1906 (= (stack_s x_0 x_1 x_2 x_3 0 (_ bv1 6)) x_1)))
 (let (($x3642 (= (stack_s x_0 x_1 x_2 x_3 0 (_ bv0 6)) x_0)))
 (let (($x7909 (= ?x72 (_ bv4 6))))
 (and $x7909 $x3642 $x1906 $x8886 $x6479 $x10338 $x8944 $x7445 (= (stack_s x_0 x_1 x_2 x_3 1 (bvadd (_ bv63 6) ?x154)) ?x9252) (= (stack_s x_0 x_1 x_2 x_3 1 ?x2668) ?x9252) (= (used_gas_s x_0 x_1 x_2 x_3 1) (+ 3 ?x3024)) $x7356 $x9192 $x9210 (= $x189 (or $x57 (not (bvsle (_ bv0 6) ?x2668)) $x7209)) (= ?x8041 (+ 2 (used_gas_s x_0 x_1 x_2 x_3 1))) (= ?x218 (bvadd (_ bv63 6) ?x154)) $x8687 $x9191 $x9164 (= ?x7988 (stack_s x_0 x_1 x_2 x_3 2 (bvadd (_ bv60 6) ?x218))) $x3744 (= ?x8604 (stack_s x_0 x_1 x_2 x_3 2 (bvadd (_ bv61 6) ?x218))) (= ?x4964 (stack_s x_0 x_1 x_2 x_3 2 (bvadd (_ bv62 6) ?x218))) (= ?x5801 (+ 3 ?x8041)) $x5222 $x9121 $x8919 $x8154 $x2959 $x7889 $x8378 (= ?x8858 (+ 3 ?x5801)) (= (sc_s 4) ?x275) $x8371 $x8369 $x8362 $x8358 (= ?x805 (bvadd (_ bv63 6) (sc_s 4))) $x8355 $x8340 $x5501 (= ?x8704 (stack_t x_0 x_1 x_2 x_3 0 (bvadd (_ bv60 6) ?x63))) $x9106 (= ?x9092 (stack_t x_0 x_1 x_2 x_3 0 (bvadd (_ bv61 6) ?x63))) (= ?x9098 (stack_t x_0 x_1 x_2 x_3 0 (bvadd (_ bv62 6) ?x63))) (= (used_gas_t x_0 x_1 x_2 x_3 1) (+ 3 ?x6467)) (= ?x4023 ?x63) $x7918 $x8331 (= (exc_halt_t 1) (or $x56 (not (bvsle (_ bv0 6) (bvadd (_ bv60 6) ?x63))))) (= ?x9037 ?x9092) (= (stack_t x_0 x_1 x_2 x_3 2 (bvadd (_ bv61 6) ?x4056)) ?x8704) (= (stack_t x_0 x_1 x_2 x_3 2 (bvadd (_ bv62 6) ?x4056)) ?x9098) (= ?x3503 (+ 3 (used_gas_t x_0 x_1 x_2 x_3 1))) $x5262 $x8316 $x8363 $x5895 $x8447 (= ?x8519 (+ 3 ?x3503)) (= (sc_t 3) ?x4056) $x8108 $x1015 $x8789 $x8105 (= ?x5915 (bvadd (_ bv63 6) (sc_t 3))) $x8126 $x8995 $x2128 $x73 $x8708 $x58 $x9147 $x2422 (not (and $x6189 $x8076 $x5968 $x8897))))))))))))))))))))))))))))))))))))))))))))))))))))))))))))))))))))))))))))))))))))))))))))))))))))
 )
(check-sat)
(get-proof)
